c numero: 76
c nombre: n-60-d-0.1
c densidad: 0.1
p edges 60 195
e 1 8
e 1 18
e 1 21
e 1 22
e 1 28
e 1 34
e 1 36
e 1 39
e 1 42
e 1 44
e 1 55
e 2 17
e 2 22
e 2 23
e 2 27
e 2 33
e 2 40
e 2 47
e 2 60
e 3 10
e 3 12
e 3 18
e 3 21
e 3 22
e 3 30
e 3 38
e 3 41
e 3 50
e 4 9
e 4 50
e 4 52
e 4 57
e 4 60
e 5 12
e 5 14
e 5 25
e 5 38
e 5 42
e 5 45
e 6 25
e 6 27
e 6 32
e 6 41
e 6 46
e 6 47
e 6 52
e 7 9
e 7 28
e 8 14
e 8 30
e 8 43
e 8 48
e 8 54
e 9 11
e 9 24
e 9 32
e 9 44
e 9 49
e 9 54
e 9 60
e 11 14
e 11 20
e 11 22
e 11 35
e 11 39
e 11 47
e 11 57
e 11 59
e 12 25
e 12 46
e 13 14
e 13 23
e 13 42
e 13 46
e 14 15
e 14 52
e 14 56
e 15 22
e 15 28
e 15 32
e 15 37
e 15 43
e 15 54
e 15 59
e 15 60
e 16 19
e 16 42
e 16 44
e 16 47
e 16 56
e 16 57
e 17 34
e 17 50
e 17 57
e 18 20
e 18 23
e 18 25
e 18 28
e 18 33
e 18 38
e 18 44
e 18 45
e 18 54
e 18 56
e 18 59
e 19 34
e 19 36
e 19 51
e 19 53
e 19 59
e 20 21
e 20 49
e 20 52
e 21 25
e 21 52
e 22 23
e 22 35
e 22 36
e 22 42
e 23 25
e 23 26
e 23 43
e 23 55
e 23 56
e 23 58
e 24 25
e 24 33
e 24 47
e 24 54
e 25 30
e 25 35
e 25 53
e 25 54
e 26 43
e 26 44
e 26 55
e 27 32
e 27 49
e 27 57
e 27 60
e 28 40
e 28 46
e 28 54
e 29 31
e 29 50
e 29 55
e 30 41
e 30 57
e 30 59
e 31 43
e 31 48
e 31 51
e 32 37
e 33 42
e 33 48
e 33 57
e 33 58
e 35 47
e 35 51
e 36 38
e 36 40
e 36 47
e 36 55
e 37 42
e 37 51
e 37 56
e 37 60
e 38 39
e 38 41
e 38 46
e 38 48
e 38 51
e 39 49
e 39 57
e 40 46
e 40 52
e 40 58
e 41 43
e 41 50
e 41 54
e 41 57
e 42 47
e 42 54
e 46 57
e 47 53
e 49 60
e 50 58
e 50 59
e 51 59
e 52 56
e 52 59
e 53 60
e 55 56
e 55 57
e 55 58
